p cnf 65 77                 
5 -33 0
-1 16 0
-2 16 0
-3 16 0
-4 16 0
1 2 3 4 -16 0
-5 1 -27 0
27 -31 0
-6 2 -28 0
28 -31 0
-7 3 -29 0
29 -31 0
-8 4 -30 0
30 -31 0
-16 31 -32 0
32 -33 0
33 37 0
-1 37 0
6 -34 0
32 -34 0
34 38 0
-2 38 0
7 -35 0
32 -35 0
35 39 0
-3 39 0
8 -36 0
32 -36 0
36 40 0
-4 40 0
-37 -38 -39 -40 41 0
-41 -42 0
-6 -5 -9 0
9 -15 0
-5 10 0
-6 10 0
5 6 -10 0
-10 -7 -11 0
11 -15 0
-7 12 0
-10 12 0
7 10 -12 0
-12 -8 -13 0
13 -15 0
8 12 -14 0
14 -15 0
15 -42 0
16 -42 0
-1 2 -43 0
43 -49 0
-1 -2 44 0
1 2 44 0
-2 2 44 0
-5 6 -45 0
-44 45 -46 0
46 -49 0
49 -64 0
-2 3 -50 0
50 -56 0
-2 -3 51 0
2 3 51 0
-3 3 51 0
-6 7 -52 0
-51 52 -53 0
53 -56 0
56 -64 0
-3 4 -57 0
57 -63 0
-3 -4 58 0
3 4 58 0
-4 4 58 0
-7 8 -59 0
-58 59 -60 0
60 -63 0
63 -64 0
42 0
64 0
